43
75
59	3
58	3
57	2
56	1
55	2
54	1
53	2
52	3
50	5
49	2
48	1
47	3
46	4
44	2
43	1
42	1
41	2
40	2
39	2
38	3
35	3
34	2
33	3
32	2
31	4
29	2
28	2
27	2
26	3
25	1
24	5
23	3
21	2
20	1
19	3
18	2
17	4
16	1
13	1
10	1
9	3
8	2
7	3
